222 5
10 10 10 10 10 

0 0 0 0 0 0 2 2 14 
0 0 0 0 0 0 3 3 6 8 
5 0 0 0 0 1 1 4 
2 0 0 0 0 3 2 12 5 
1 0 0 0 0 6 1 7 
10 0 0 0 0 6 1 7 
2 0 0 0 0 7 1 9 
3 0 0 0 0 5 1 9 
6 0 0 0 0 4 1 10 
8 0 0 0 0 7 1 11 
7 0 0 0 0 4 1 13 
8 0 0 0 0 7 1 13 
0 0 0 0 0 0 2 66 108 
0 0 0 0 0 0 1 15 
3 4 1 1 3 1 2 19 16 
3 2 3 8 5 3 1 17 
3 6 5 5 2 3 1 18 
4 7 6 6 4 7 1 20 
3 4 5 5 3 6 1 20 
2 10 5 4 9 3 2 24 21 
8 8 5 3 3 5 1 22 
9 6 4 5 6 5 1 23 
4 3 4 5 4 7 1 25 
9 5 5 5 10 8 1 25 
6 7 5 4 6 6 1 26 
6 3 7 2 6 3 1 27 
1 9 4 9 7 5 2 29 28 
1 8 1 6 2 2 2 34 30 
5 5 4 4 4 6 1 30 
2 7 5 6 7 5 1 31 
5 7 3 7 7 4 1 32 
6 2 8 6 4 4 3 39 38 33 
9 2 3 6 6 6 2 41 35 
8 3 4 4 3 5 2 41 35 
9 6 5 5 6 6 1 36 
7 4 7 4 6 4 1 37 
6 2 3 5 3 5 2 42 40 
4 6 7 7 8 5 2 48 40 
4 2 7 4 2 5 1 41 
10 4 4 4 5 3 1 43 
1 5 5 5 5 1 1 43 
2 3 5 6 5 6 2 48 45 
7 4 6 6 5 4 1 44 
6 2 6 4 4 6 1 45 
9 6 4 7 6 4 1 46 
2 7 4 3 6 3 2 49 47 
6 9 5 5 3 10 2 54 50 
5 3 5 4 6 8 2 51 49 
10 4 7 6 2 8 2 54 52 
6 7 6 2 4 8 1 51 
4 5 2 2 5 2 1 52 
6 8 8 5 4 4 1 53 
4 3 5 2 6 3 2 59 55 
6 3 6 5 3 4 2 59 55 
3 3 5 8 4 4 1 56 
5 3 6 7 6 9 1 57 
6 8 4 4 9 7 1 58 
7 4 5 5 3 3 1 60 
5 7 7 7 3 5 1 60 
7 6 2 5 7 5 1 61 
4 5 6 5 6 5 2 64 62 
9 5 10 3 7 7 1 63 
4 6 7 9 3 8 1 65 
10 2 4 5 7 4 1 65 
0 0 0 0 0 0 1 222 
0 0 0 0 0 0 2 67 68 
3 0 2 1 3 1 2 71 69 
5 0 4 5 8 4 1 69 
3 0 6 5 3 6 1 70 
1 0 6 3 9 8 1 72 
6 0 4 6 4 5 1 72 
9 0 8 6 4 6 1 73 
1 0 1 6 6 8 1 74 
9 0 6 10 8 7 1 75 
9 0 7 4 4 4 2 78 76 
7 0 10 7 5 3 1 77 
5 0 4 7 3 4 1 79 
6 0 6 4 5 4 1 79 
9 0 5 6 5 2 1 80 
5 0 4 2 5 4 1 81 
2 0 4 8 8 6 1 82 
10 0 4 7 2 4 1 83 
3 0 8 8 2 5 3 87 85 84 
8 0 8 6 3 6 2 88 86 
2 0 7 4 5 5 2 89 88 
2 0 3 5 3 3 1 89 
1 0 3 6 4 3 1 88 
2 0 3 7 4 6 1 90 
7 0 5 3 2 3 1 90 
10 0 7 5 6 7 1 91 
9 0 1 4 5 6 2 94 92 
6 0 1 8 10 6 1 93 
10 0 6 5 6 8 1 95 
3 0 4 4 4 6 1 95 
3 0 4 6 2 6 2 97 96 
3 0 7 6 3 4 2 99 98 
5 0 4 4 4 3 1 98 
4 0 3 2 5 7 2 102 100 
7 0 4 2 10 2 2 102 101 
5 0 4 2 7 5 1 101 
4 0 8 5 3 4 1 103 
2 0 6 4 4 4 1 103 
5 0 7 4 8 6 1 104 
4 0 5 2 7 6 1 105 
9 0 8 6 6 6 1 106 
3 0 3 5 5 7 1 107 
0 0 0 0 0 0 1 222 
0 0 0 0 0 0 2 109 110 
4 0 0 0 0 1 2 112 111 
5 0 0 0 0 6 2 112 111 
4 0 0 0 0 7 2 117 113 
10 0 0 0 0 4 2 117 113 
9 0 0 0 0 6 1 114 
2 0 0 0 0 5 1 115 
10 0 0 0 0 3 1 116 
9 0 0 0 0 6 1 118 
10 0 0 0 0 6 1 118 
7 0 0 0 0 6 1 119 
0 0 0 0 0 0 2 120 132 
0 0 0 0 0 0 2 121 122 
4 0 0 1 0 0 1 123 
10 0 0 7 0 0 1 123 
5 0 0 5 0 0 2 125 124 
2 0 0 3 0 0 1 126 
7 0 0 3 0 0 1 126 
2 0 0 9 0 0 1 127 
10 0 0 5 0 0 2 129 128 
9 0 0 4 0 0 1 130 
9 0 0 9 0 0 1 130 
2 0 0 4 0 0 1 131 
0 0 0 0 0 0 2 164 176 
0 0 0 0 0 0 2 133 141 
6 1 2 0 0 1 1 134 
8 9 7 0 0 3 1 135 
4 2 3 0 0 5 1 136 
6 7 6 0 0 5 1 137 
9 7 4 0 0 8 2 144 138 
2 3 2 0 0 7 1 139 
10 5 8 0 0 10 1 140 
8 8 6 0 0 6 3 148 145 142 
6 4 5 0 0 3 1 142 
3 3 5 0 0 3 2 147 143 
7 3 5 0 0 4 3 151 150 146 
10 6 5 0 0 5 2 150 146 
8 6 7 0 0 9 2 150 149 
1 2 4 0 0 6 1 149 
8 6 4 0 0 5 1 149 
7 3 7 0 0 9 1 150 
3 6 6 0 0 6 1 152 
7 2 7 0 0 1 1 152 
8 3 2 0 0 6 1 152 
10 6 8 0 0 4 1 153 
1 7 4 0 0 2 1 154 
9 6 4 0 0 5 2 158 155 
3 6 5 0 0 6 1 156 
5 6 4 0 0 7 1 157 
8 5 4 0 0 4 1 159 
5 5 4 0 0 4 1 159 
9 6 4 0 0 4 1 160 
6 4 10 0 0 4 1 161 
6 5 4 0 0 3 1 162 
9 8 4 0 0 5 1 163 
0 0 0 0 0 0 1 222 
0 0 0 0 0 0 4 165 167 169 172 
9 0 0 0 1 0 1 166 
4 0 0 0 4 0 1 168 
3 0 0 0 5 0 1 168 
9 0 0 0 3 0 1 170 
3 0 0 0 4 0 1 170 
2 0 0 0 8 0 1 171 
8 0 0 0 4 0 1 173 
2 0 0 0 6 0 1 173 
2 0 0 0 9 0 1 174 
1 0 0 0 6 0 1 175 
0 0 0 0 0 0 2 198 210 
0 0 0 0 0 0 2 177 182 
2 1 0 0 0 1 1 178 
6 4 0 0 0 7 1 179 
6 3 0 0 0 6 1 180 
5 7 0 0 0 9 2 185 181 
2 6 0 0 0 3 1 183 
1 8 0 0 0 6 1 183 
1 4 0 0 0 4 1 184 
9 9 0 0 0 7 2 192 186 
10 4 0 0 0 6 1 186 
2 4 0 0 0 5 1 187 
3 7 0 0 0 5 2 190 188 
9 6 0 0 0 3 1 189 
7 5 0 0 0 3 2 196 191 
3 8 0 0 0 5 2 196 194 
6 4 0 0 0 7 1 193 
3 2 0 0 0 7 1 193 
1 3 0 0 0 5 1 194 
4 5 0 0 0 1 1 195 
3 1 0 0 0 4 1 197 
1 9 0 0 0 6 1 197 
0 0 0 0 0 0 1 222 
0 0 0 0 0 0 2 199 202 
7 0 0 0 0 1 2 207 200 
5 0 0 0 0 7 1 201 
3 0 0 0 0 3 2 206 203 
10 0 0 0 0 8 3 207 206 205 
4 0 0 0 0 6 1 204 
4 0 0 0 0 6 1 205 
1 0 0 0 0 4 1 208 
2 0 0 0 0 5 1 208 
5 0 0 0 0 4 1 208 
3 0 0 0 0 6 1 209 
0 0 0 0 0 0 1 222 
0 0 0 0 0 0 1 211 
6 0 0 0 0 2 1 212 
10 0 0 0 0 2 2 220 213 
1 0 0 0 0 8 1 214 
10 0 0 0 0 3 3 219 218 215 
5 0 0 0 0 4 1 216 
7 0 0 0 0 6 1 217 
1 0 0 0 0 6 1 221 
5 0 0 0 0 5 1 221 
9 0 0 0 0 10 1 221 
2 0 0 0 0 4 1 221 
0 0 0 0 0 0 1 222 
0 0 0 0 0 0 0 
